p cnf 286 807
e 1 2 3 4 0
a 5 6 7 11 0
e 8 9 10 12 13 14 15 16 17 18 19 0
a 20 21 22 23 0
e 24 25 26 0
a 27 28 0
e 29 30 31 32 33 34 35 36 0
e 37 38 39 40 41 42 43 44 45 46 47 48 49 50 51 52 53 54 55 56 57 58 59 60 61 62 63 64 65 66 67 68 69 70 71 72 73 74 75 76 77 78 79 80 81 82 83 84 85 86 87 88 89 90 91 92 93 94 95 96 97 98 99 100 101 102 103 104 105 106 107 108 109 110 111 112 113 114 115 116 117 118 119 120 121 122 123 124 125 126 127 128 129 130 131 132 133 134 135 136 137 138 139 140 141 142 143 144 145 146 147 148 149 150 151 152 153 154 155 156 157 158 159 160 161 162 163 164 165 166 167 168 169 170 171 172 173 174 175 176 177 178 179 180 181 182 183 184 185 186 187 188 189 190 191 192 193 194 195 196 197 198 199 200 201 202 203 204 205 206 207 208 209 210 211 212 213 214 215 216 217 218 219 220 221 222 223 224 225 226 227 228 229 230 231 232 233 234 235 236 237 238 239 240 241 242 243 244 245 246 247 248 249 250 251 252 253 254 255 256 257 258 259 260 261 262 263 264 265 266 267 268 269 270 271 272 273 274 275 276 277 278 279 280 281 282 283 284 285 286 0
29 37 0
-31 37 0
-29 31 -37 0
31 38 0
-29 38 0
-31 29 -38 0
37 -39 0
38 -39 0
-37 -38 39 0
30 40 0
-32 40 0
-30 32 -40 0
32 41 0
-30 41 0
-32 30 -41 0
40 -42 0
41 -42 0
-40 -41 42 0
39 -43 0
42 -43 0
-39 -42 43 0
2 44 0
-27 44 0
-2 27 -44 0
27 45 0
-2 45 0
-27 2 -45 0
44 -46 0
45 -46 0
-44 -45 46 0
3 47 0
-28 47 0
-3 28 -47 0
28 48 0
-3 48 0
-28 3 -48 0
47 -49 0
48 -49 0
-47 -48 49 0
46 -50 0
49 -50 0
-46 -49 50 0
50 51 0
29 51 0
-50 -29 -51 0
-52 0
52 53 0
-3 53 0
-52 3 -53 0
3 54 0
-52 54 0
-3 52 -54 0
53 -55 0
54 -55 0
-53 -54 55 0
55 56 0
-28 56 0
-55 28 -56 0
28 57 0
-55 57 0
-28 55 -57 0
56 -58 0
57 -58 0
-56 -57 58 0
46 -59 0
58 -59 0
-46 -58 59 0
59 60 0
-29 60 0
-59 29 -60 0
31 -61 0
-32 -61 0
-31 32 61 0
50 62 0
-61 62 0
-50 61 -62 0
-50 63 0
-43 63 0
50 43 -63 0
-3 -64 0
51 -64 0
60 -64 0
62 -64 0
63 -64 0
3 -51 -60 -62 -63 64 0
-1 65 0
-64 65 0
1 64 -65 0
46 -66 0
28 -66 0
-46 -28 66 0
66 67 0
29 67 0
-66 -29 -67 0
66 68 0
-61 68 0
-66 61 -68 0
-66 69 0
-43 69 0
66 43 -69 0
67 -70 0
68 -70 0
69 -70 0
-67 -68 -69 70 0
1 71 0
-70 71 0
-1 70 -71 0
65 -72 0
71 -72 0
-65 -71 72 0
31 73 0
-33 73 0
-31 33 -73 0
33 74 0
-31 74 0
-33 31 -74 0
73 -75 0
74 -75 0
-73 -74 75 0
32 76 0
-34 76 0
-32 34 -76 0
34 77 0
-32 77 0
-34 32 -77 0
76 -78 0
77 -78 0
-76 -77 78 0
75 -79 0
78 -79 0
-75 -78 79 0
-5 80 0
7 80 0
5 -7 -80 0
81 0
8 82 0
-80 82 0
-8 80 -82 0
80 83 0
-8 83 0
-80 8 -83 0
82 -84 0
83 -84 0
-82 -83 84 0
6 85 0
-27 85 0
-6 27 -85 0
27 86 0
-6 86 0
-27 6 -86 0
85 -87 0
86 -87 0
-85 -86 87 0
7 88 0
-28 88 0
-7 28 -88 0
28 89 0
-7 89 0
-28 7 -89 0
88 -90 0
89 -90 0
-88 -89 90 0
87 -91 0
90 -91 0
-87 -90 91 0
-31 92 0
-9 92 0
31 9 -92 0
9 93 0
31 93 0
-9 -31 -93 0
92 -94 0
93 -94 0
-92 -93 94 0
-5 95 0
91 95 0
-94 95 0
5 -91 94 -95 0
52 96 0
-7 96 0
-52 7 -96 0
7 97 0
-52 97 0
-7 52 -97 0
96 -98 0
97 -98 0
-96 -97 98 0
98 99 0
-28 99 0
-98 28 -99 0
28 100 0
-98 100 0
-28 98 -100 0
99 -101 0
100 -101 0
-99 -100 101 0
87 -102 0
101 -102 0
-87 -101 102 0
31 103 0
-10 103 0
-31 10 -103 0
10 104 0
-31 104 0
-10 31 -104 0
103 -105 0
104 -105 0
-103 -104 105 0
-5 106 0
102 106 0
-105 106 0
5 -102 105 -106 0
87 -107 0
28 -107 0
-87 -28 107 0
5 108 0
107 108 0
-94 108 0
-5 -107 94 -108 0
-31 109 0
-10 109 0
31 10 -109 0
10 110 0
31 110 0
-10 -31 -110 0
109 -111 0
110 -111 0
-109 -110 111 0
5 112 0
107 112 0
-111 112 0
-5 -107 111 -112 0
8 -113 0
9 -113 0
10 -113 0
-8 -9 -10 113 0
33 -114 0
34 -114 0
-33 -34 114 0
91 115 0
-114 115 0
-91 114 -115 0
-91 116 0
-79 116 0
91 79 -116 0
115 -117 0
116 -117 0
-115 -116 117 0
113 -118 0
-5 -118 0
-113 5 118 0
118 119 0
-117 119 0
-118 117 -119 0
107 120 0
-114 120 0
-107 114 -120 0
-107 121 0
-79 121 0
107 79 -121 0
120 -122 0
121 -122 0
-120 -121 122 0
113 -123 0
5 -123 0
-113 -5 123 0
123 124 0
-122 124 0
-123 122 -124 0
84 -125 0
95 -125 0
106 -125 0
108 -125 0
112 -125 0
119 -125 0
124 -125 0
-84 -95 -106 -108 -112 -119 -124 125 0
33 126 0
-35 126 0
-33 35 -126 0
35 127 0
-33 127 0
-35 33 -127 0
126 -128 0
127 -128 0
-126 -127 128 0
34 129 0
-36 129 0
-34 36 -129 0
36 130 0
-34 130 0
-36 34 -130 0
129 -131 0
130 -131 0
-129 -130 131 0
128 -132 0
131 -132 0
-128 -131 132 0
13 133 0
-27 133 0
-13 27 -133 0
27 134 0
-13 134 0
-27 13 -134 0
133 -135 0
134 -135 0
-133 -134 135 0
14 136 0
-28 136 0
-14 28 -136 0
28 137 0
-14 137 0
-28 14 -137 0
136 -138 0
137 -138 0
-136 -137 138 0
135 -139 0
138 -139 0
-135 -138 139 0
139 140 0
33 140 0
-139 -33 -140 0
52 141 0
-14 141 0
-52 14 -141 0
14 142 0
-52 142 0
-14 52 -142 0
141 -143 0
142 -143 0
-141 -142 143 0
143 144 0
-28 144 0
-143 28 -144 0
28 145 0
-143 145 0
-28 143 -145 0
144 -146 0
145 -146 0
-144 -145 146 0
135 -147 0
146 -147 0
-135 -146 147 0
147 148 0
-33 148 0
-147 33 -148 0
35 -149 0
-36 -149 0
-35 36 149 0
139 150 0
-149 150 0
-139 149 -150 0
-139 151 0
-132 151 0
139 132 -151 0
-14 -152 0
140 -152 0
148 -152 0
150 -152 0
151 -152 0
14 -140 -148 -150 -151 152 0
-12 153 0
-152 153 0
12 152 -153 0
135 -154 0
28 -154 0
-135 -28 154 0
154 155 0
33 155 0
-154 -33 -155 0
154 156 0
-149 156 0
-154 149 -156 0
-154 157 0
-132 157 0
154 132 -157 0
155 -158 0
156 -158 0
157 -158 0
-155 -156 -157 158 0
12 159 0
-158 159 0
-12 158 -159 0
153 -160 0
159 -160 0
-153 -159 160 0
-16 -161 0
-17 -161 0
16 17 161 0
18 162 0
-27 162 0
-18 27 -162 0
27 163 0
-18 163 0
-27 18 -163 0
162 -164 0
163 -164 0
-162 -163 164 0
19 165 0
-28 165 0
-19 28 -165 0
28 166 0
-19 166 0
-28 19 -166 0
165 -167 0
166 -167 0
-165 -166 167 0
164 -168 0
167 -168 0
-164 -167 168 0
168 169 0
-149 169 0
-168 149 -169 0
52 170 0
-18 170 0
-52 18 -170 0
18 171 0
-52 171 0
-18 52 -171 0
170 -172 0
171 -172 0
-170 -171 172 0
172 173 0
-27 173 0
-172 27 -173 0
27 174 0
-172 174 0
-27 172 -174 0
173 -175 0
174 -175 0
-173 -174 175 0
175 -176 0
167 -176 0
-175 -167 176 0
176 177 0
-149 177 0
-176 149 -177 0
169 -178 0
177 -178 0
-18 -178 0
-169 -177 18 178 0
161 179 0
-178 179 0
-161 178 -179 0
-16 -180 0
17 -180 0
16 -17 180 0
52 181 0
-19 181 0
-52 19 -181 0
19 182 0
-52 182 0
-19 52 -182 0
181 -183 0
182 -183 0
-181 -182 183 0
183 184 0
-28 184 0
-183 28 -184 0
28 185 0
-183 185 0
-28 183 -185 0
184 -186 0
185 -186 0
-184 -185 186 0
164 -187 0
186 -187 0
-164 -186 187 0
187 188 0
-149 188 0
-187 149 -188 0
169 -189 0
188 -189 0
-19 -189 0
-169 -188 19 189 0
180 190 0
-189 190 0
-180 189 -190 0
16 -191 0
-17 -191 0
-16 17 191 0
175 -192 0
186 -192 0
-175 -186 192 0
192 193 0
-149 193 0
-192 149 -193 0
169 -194 0
193 -194 0
-18 -194 0
-19 -194 0
-169 -193 18 19 194 0
191 195 0
-194 195 0
-191 194 -195 0
16 -196 0
17 -196 0
-16 -17 196 0
169 -197 0
193 -197 0
-18 -197 0
19 -197 0
-169 -193 18 -19 197 0
196 198 0
-197 198 0
-196 197 -198 0
179 -199 0
190 -199 0
195 -199 0
198 -199 0
-179 -190 -195 -198 199 0
-22 -200 0
-23 -200 0
22 23 200 0
-24 -201 0
-25 -201 0
-26 -201 0
24 25 26 201 0
20 202 0
-27 202 0
-20 27 -202 0
27 203 0
-20 203 0
-27 20 -203 0
202 -204 0
203 -204 0
-202 -203 204 0
21 205 0
-28 205 0
-21 28 -205 0
28 206 0
-21 206 0
-28 21 -206 0
205 -207 0
206 -207 0
-205 -206 207 0
204 -208 0
207 -208 0
-204 -207 208 0
200 -209 0
201 -209 0
208 -209 0
-200 -201 -208 209 0
35 -210 0
36 -210 0
-35 -36 210 0
209 211 0
210 211 0
-209 -210 -211 0
-24 -212 0
-25 -212 0
26 -212 0
24 25 -26 212 0
52 213 0
-20 213 0
-52 20 -213 0
20 214 0
-52 214 0
-20 52 -214 0
213 -215 0
214 -215 0
-213 -214 215 0
215 216 0
-27 216 0
-215 27 -216 0
27 217 0
-215 217 0
-27 215 -217 0
216 -218 0
217 -218 0
-216 -217 218 0
218 -219 0
207 -219 0
-218 -207 219 0
200 -220 0
212 -220 0
219 -220 0
-200 -212 -219 220 0
220 221 0
210 221 0
-220 -210 -221 0
-24 -222 0
25 -222 0
-26 -222 0
24 -25 26 222 0
200 -223 0
-20 -223 0
-200 20 223 0
223 224 0
222 224 0
-223 -222 -224 0
-24 -225 0
25 -225 0
26 -225 0
24 -25 -26 225 0
200 226 0
225 226 0
-200 -225 -226 0
24 -227 0
-25 -227 0
-26 -227 0
-24 25 26 227 0
200 228 0
227 228 0
-200 -227 -228 0
-22 -229 0
23 -229 0
22 -23 229 0
229 -230 0
201 -230 0
208 -230 0
-229 -201 -208 230 0
230 231 0
210 231 0
-230 -210 -231 0
52 232 0
-21 232 0
-52 21 -232 0
21 233 0
-52 233 0
-21 52 -233 0
232 -234 0
233 -234 0
-232 -233 234 0
234 235 0
-28 235 0
-234 28 -235 0
28 236 0
-234 236 0
-28 234 -236 0
235 -237 0
236 -237 0
-235 -236 237 0
204 -238 0
237 -238 0
-204 -237 238 0
229 -239 0
212 -239 0
238 -239 0
-229 -212 -238 239 0
239 240 0
210 240 0
-239 -210 -240 0
229 241 0
222 241 0
-229 -222 -241 0
229 -242 0
-21 -242 0
-229 21 242 0
242 243 0
225 243 0
-242 -225 -243 0
242 244 0
227 244 0
-242 -227 -244 0
22 -245 0
-23 -245 0
-22 23 245 0
245 -246 0
201 -246 0
208 -246 0
-245 -201 -208 246 0
246 247 0
210 247 0
-246 -210 -247 0
218 -248 0
237 -248 0
-218 -237 248 0
245 -249 0
212 -249 0
248 -249 0
-245 -212 -248 249 0
249 250 0
210 250 0
-249 -210 -250 0
245 -251 0
-20 -251 0
-245 20 251 0
251 252 0
222 252 0
-251 -222 -252 0
245 -253 0
-21 -253 0
-245 21 253 0
253 254 0
225 254 0
-253 -225 -254 0
253 255 0
227 255 0
-253 -227 -255 0
22 -256 0
23 -256 0
-22 -23 256 0
256 -257 0
201 -257 0
208 -257 0
-256 -201 -208 257 0
257 258 0
210 258 0
-257 -210 -258 0
256 -259 0
212 -259 0
248 -259 0
-256 -212 -248 259 0
259 260 0
210 260 0
-259 -210 -260 0
256 -261 0
-20 -261 0
-256 20 261 0
261 262 0
222 262 0
-261 -222 -262 0
256 -263 0
21 -263 0
-256 -21 263 0
263 264 0
225 264 0
-263 -225 -264 0
256 265 0
227 265 0
-256 -227 -265 0
24 266 0
-227 266 0
-24 227 -266 0
211 -267 0
221 -267 0
224 -267 0
226 -267 0
228 -267 0
231 -267 0
240 -267 0
241 -267 0
243 -267 0
244 -267 0
247 -267 0
250 -267 0
252 -267 0
254 -267 0
255 -267 0
258 -267 0
260 -267 0
262 -267 0
264 -267 0
265 -267 0
266 -267 0
-211 -221 -224 -226 -228 -231 -240 -241 -243 -244 -247 -250 -252 -254 -255 -258 -260 -262 -264 -265 -266 267 0
160 -268 0
199 -268 0
-160 -199 268 0
113 -269 0
-11 -269 0
-113 11 269 0
269 270 0
-268 270 0
-269 268 -270 0
113 -271 0
11 -271 0
-113 -11 271 0
132 -272 0
267 -272 0
-132 -267 272 0
271 273 0
-272 273 0
-271 272 -273 0
125 -274 0
270 -274 0
273 -274 0
-125 -270 -273 274 0
-4 275 0
-274 275 0
4 274 -275 0
31 276 0
-35 276 0
-31 35 -276 0
35 277 0
-31 277 0
-35 31 -277 0
276 -278 0
277 -278 0
-276 -277 278 0
32 279 0
-36 279 0
-32 36 -279 0
36 280 0
-32 280 0
-36 32 -280 0
279 -281 0
280 -281 0
-279 -280 281 0
278 -282 0
281 -282 0
-278 -281 282 0
282 -283 0
199 -283 0
-282 -199 283 0
4 284 0
-283 284 0
-4 283 -284 0
72 -285 0
275 -285 0
284 -285 0
-72 -275 -284 285 0
-29 -286 0
285 -286 0
29 -285 286 0
286 0

